============================[ Problem Statistics ]=============================
|                                                                             |
|  Number of variables:           202                                         |
|  Number of clauses:            3636                                         |
|  Parse time:                   0.00 s                                       |
|                                                                             |
============================[ Search Statistics ]==============================
| Conflicts |          ORIGINAL         |          LEARNT          | Progress |
|           |    Vars  Clauses Literals |    Limit  Clauses Lit/Cl |          |
===============================================================================
|       100 |     200     3636    23712 |     1333      100     11 |  0.993 % |
===============================================================================
restarts              : 2
conflicts             : 118            (36230 /sec)
decisions             : 665            (0.00 % random) (204176 /sec)
propagations          : 1093           (335585 /sec)
conflict literals     : 1169           (12.89 % deleted)
Memory used           : 4.51 MB
CPU time              : 0.003257 s

SATISFIABLE
